%%% static parameters %%%
timespan = 1;
initial_fruit_bushes = [40];
initial_foragers = [40];
ticks_to_flee = [100];
bush_growth_chance = [10];
rate_of_mutation = [5.0];
%%% dynamic parameters %%%
mean_strength_th = 0.3375926081203583;
mean_strength_w = 20;
mean_speed_th = 0.9248899227639878;
mean_speed_w = 88;
mean_intelligence_th = 0.017352197393107116;
mean_intelligence_w = 40;
murder_rate_th = 0.18816911069908115;
murder_rate_w = 90;
age_death_rate_th = 0.7580607161636823;
age_death_rate_w = 20;
starvation_rate_th = 0.432111228591892;
starvation_rate_w = 65;
mean_reactive_aggression_th = 0.10370973126278182;
mean_reactive_aggression_w = 99;
mean_proactive_aggression_th = 0.33454310391851905;
mean_proactive_aggression_w = 30;
average_population_th = 562;
average_population_w = 256;
